(declare-fun $n+9 () Int)
(declare-fun fp!<root> () Int)
(declare-fun ap!<root>@3 () Int)
(declare-fun $n () Int)
(assert (let ((a!1 (not (= (mod (+ 3618502788666131213697322783095070105623107215331596699973092056135872020478
                           fp!<root>)
                        3618502788666131213697322783095070105623107215331596699973092056135872020481)
                   fp!<root>)))
      (a!3 (not (= (mod (+ 3618502788666131213697322783095070105623107215331596699973092056135872020478
                           fp!<root>)
                        3618502788666131213697322783095070105623107215331596699973092056135872020481)
                   (mod (+ 1 fp!<root>)
                        3618502788666131213697322783095070105623107215331596699973092056135872020481))))
      (a!4 (not (= (mod (+ 3618502788666131213697322783095070105623107215331596699973092056135872020478
                           fp!<root>)
                        3618502788666131213697322783095070105623107215331596699973092056135872020481)
                   (mod (+ 2 fp!<root>)
                        3618502788666131213697322783095070105623107215331596699973092056135872020481))))
      (a!5 (not (= (mod (+ 3618502788666131213697322783095070105623107215331596699973092056135872020478
                           fp!<root>)
                        3618502788666131213697322783095070105623107215331596699973092056135872020481)
                   (mod fp!<root>
                        3618502788666131213697322783095070105623107215331596699973092056135872020481))))
      (a!6 (not (= (mod (+ 3618502788666131213697322783095070105623107215331596699973092056135872020478
                           fp!<root>)
                        3618502788666131213697322783095070105623107215331596699973092056135872020481)
                   (mod (+ 3618502788666131213697322783095070105623107215331596699973092056135872020480
                           ap!<root>@3)
                        3618502788666131213697322783095070105623107215331596699973092056135872020481))))
      (a!8 (not (= fp!<root>
                   (mod (+ 1 fp!<root>)
                        3618502788666131213697322783095070105623107215331596699973092056135872020481))))
      (a!10 (not (= fp!<root>
                    (mod (+ 2 fp!<root>)
                         3618502788666131213697322783095070105623107215331596699973092056135872020481))))
      (a!12 (or (not (= fp!<root>
                        (mod fp!<root>
                             3618502788666131213697322783095070105623107215331596699973092056135872020481)))
                (= (mod (+ 1 $n)
                        3618502788666131213697322783095070105623107215331596699973092056135872020481)
                   $n+9)))
      (a!13 (not (= fp!<root>
                    (mod (+ 3618502788666131213697322783095070105623107215331596699973092056135872020480
                            ap!<root>@3)
                         3618502788666131213697322783095070105623107215331596699973092056135872020481))))
      (a!15 (not (= (mod (+ 1 fp!<root>)
                         3618502788666131213697322783095070105623107215331596699973092056135872020481)
                    (mod (+ 2 fp!<root>)
                         3618502788666131213697322783095070105623107215331596699973092056135872020481))))
      (a!16 (not (= (mod (+ 1 fp!<root>)
                         3618502788666131213697322783095070105623107215331596699973092056135872020481)
                    (mod fp!<root>
                         3618502788666131213697322783095070105623107215331596699973092056135872020481))))
      (a!17 (not (= (mod (+ 1 fp!<root>)
                         3618502788666131213697322783095070105623107215331596699973092056135872020481)
                    (mod (+ 3618502788666131213697322783095070105623107215331596699973092056135872020480
                            ap!<root>@3)
                         3618502788666131213697322783095070105623107215331596699973092056135872020481))))
      (a!19 (not (= (mod (+ 2 fp!<root>)
                         3618502788666131213697322783095070105623107215331596699973092056135872020481)
                    (mod fp!<root>
                         3618502788666131213697322783095070105623107215331596699973092056135872020481))))
      (a!20 (not (= (mod (+ 2 fp!<root>)
                         3618502788666131213697322783095070105623107215331596699973092056135872020481)
                    (mod (+ 3618502788666131213697322783095070105623107215331596699973092056135872020480
                            ap!<root>@3)
                         3618502788666131213697322783095070105623107215331596699973092056135872020481))))
      (a!22 (not (= (mod fp!<root>
                         3618502788666131213697322783095070105623107215331596699973092056135872020481)
                    (mod (+ 3618502788666131213697322783095070105623107215331596699973092056135872020480
                            ap!<root>@3)
                         3618502788666131213697322783095070105623107215331596699973092056135872020481))))
      (a!24 (not (<= ap!<root>@3
                     (mod (+ 1 fp!<root>)
                          3618502788666131213697322783095070105623107215331596699973092056135872020481))))
      (a!25 (exists (($n Int))
              (and (<= 0 $n)
                   (not (<= 3618502788666131213697322783095070105623107215331596699973092056135872020481
                            $n))
                   (= (mod (+ 1 $n+9)
                           3618502788666131213697322783095070105623107215331596699973092056135872020481)
                      (mod (+ 3 $n)
                           3618502788666131213697322783095070105623107215331596699973092056135872020481))))))
(let ((a!2 (or a!1
               (= $n
                  (mod (+ 1 $n)
                       3618502788666131213697322783095070105623107215331596699973092056135872020481))))
      (a!7 (or a!6
               (= $n
                  (mod (+ 1 $n+9)
                       3618502788666131213697322783095070105623107215331596699973092056135872020481))))
      (a!9 (or a!8
               (= (mod (+ 1 $n)
                       3618502788666131213697322783095070105623107215331596699973092056135872020481)
                  fp!<root>)))
      (a!11 (or a!10
                (= (mod (+ 1 $n)
                        3618502788666131213697322783095070105623107215331596699973092056135872020481)
                   11)))
      (a!14 (or a!13
                (= (mod (+ 1 $n)
                        3618502788666131213697322783095070105623107215331596699973092056135872020481)
                   (mod (+ 1 $n+9)
                        3618502788666131213697322783095070105623107215331596699973092056135872020481))))
      (a!18 (or a!17
                (= fp!<root>
                   (mod (+ 1 $n+9)
                        3618502788666131213697322783095070105623107215331596699973092056135872020481))))
      (a!21 (or a!20
                (= 11
                   (mod (+ 1 $n+9)
                        3618502788666131213697322783095070105623107215331596699973092056135872020481))))
      (a!23 (or a!22
                (= $n+9
                   (mod (+ 1 $n+9)
                        3618502788666131213697322783095070105623107215331596699973092056135872020481)))))
  (and (<= 0 $n)
       (not (<= 3618502788666131213697322783095070105623107215331596699973092056135872020481
                $n))
       (<= 0 $n+9)
       (not (<= 3618502788666131213697322783095070105623107215331596699973092056135872020481
                $n+9))
       (<= 0 fp!<root>)
       (not (<= 3618502788666131213697322783095070105623107215331596699973092056135872020481
                fp!<root>))
       (<= 0 ap!<root>@3)
       (not (<= 3618502788666131213697322783095070105623107215331596699973092056135872020481
                ap!<root>@3))
       a!2
       (or a!3 (= $n fp!<root>))
       (or a!4 (= $n 11))
       (or a!5 (= $n $n+9))
       a!7
       a!9
       a!11
       a!12
       a!14
       (or a!15 (= fp!<root> 11))
       (or a!16 (= fp!<root> $n+9))
       a!18
       (or a!19 (= 11 $n+9))
       a!21
       a!23
       a!24
       (not a!25)))))
